c t mc
c file mc2022_track1_141.cnf
p cnf 400 1706
-1 -201 0
-2 -202 0
-3 -203 0
-4 -204 0
-5 -205 0
-6 -206 0
-7 -207 0
-8 -208 0
-9 -209 0
-10 -210 0
-11 -211 0
-12 -212 0
-13 -213 0
-14 -214 0
-15 -215 0
-16 -216 0
-17 -217 0
-18 -218 0
-19 -219 0
-20 -220 0
-21 -221 0
-22 -222 0
-23 -223 0
-24 -224 0
-25 -225 0
-26 -226 0
-27 -227 0
-28 -228 0
-29 -229 0
-30 -230 0
-31 -231 0
-32 -232 0
-33 -233 0
-34 -234 0
-35 -235 0
-36 -236 0
-37 -237 0
-38 -238 0
-39 -239 0
-40 -240 0
-41 -241 0
-42 -242 0
-43 -243 0
-44 -244 0
-45 -245 0
-46 -246 0
-47 -247 0
-48 -248 0
-49 -249 0
-50 -250 0
-51 -251 0
-52 -252 0
-53 -253 0
-54 -254 0
-55 -255 0
-56 -256 0
-57 -257 0
-58 -258 0
-59 -259 0
-60 -260 0
-61 -261 0
-62 -262 0
-63 -263 0
-64 -264 0
-65 -265 0
-66 -266 0
-67 -267 0
-68 -268 0
-69 -269 0
-70 -270 0
-71 -271 0
-72 -272 0
-73 -273 0
-74 -274 0
-75 -275 0
-76 -276 0
-77 -277 0
-78 -278 0
-79 -279 0
-80 -280 0
-81 -281 0
-82 -282 0
-83 -283 0
-84 -284 0
-85 -285 0
-86 -286 0
-87 -287 0
-88 -288 0
-89 -289 0
-90 -290 0
-91 -291 0
-92 -292 0
-93 -293 0
-94 -294 0
-95 -295 0
-96 -296 0
-97 -297 0
-98 -298 0
-99 -299 0
-100 -300 0
-101 -301 0
-102 -302 0
-103 -303 0
-104 -304 0
-105 -305 0
-106 -306 0
-107 -307 0
-108 -308 0
-109 -309 0
-110 -310 0
-111 -311 0
-112 -312 0
-113 -313 0
-114 -314 0
-115 -315 0
-116 -316 0
-117 -317 0
-118 -318 0
-119 -319 0
-120 -320 0
-121 -321 0
-122 -322 0
-123 -323 0
-124 -324 0
-125 -325 0
-126 -326 0
-127 -327 0
-128 -328 0
-129 -329 0
-130 -330 0
-131 -331 0
-132 -332 0
-133 -333 0
-134 -334 0
-135 -335 0
-136 -336 0
-137 -337 0
-138 -338 0
-139 -339 0
-140 -340 0
-141 -341 0
-142 -342 0
-143 -343 0
-144 -344 0
-145 -345 0
-146 -346 0
-147 -347 0
-148 -348 0
-149 -349 0
-150 -350 0
-151 -351 0
-152 -352 0
-153 -353 0
-154 -354 0
-155 -355 0
-156 -356 0
-157 -357 0
-158 -358 0
-159 -359 0
-160 -360 0
-161 -361 0
-162 -362 0
-163 -363 0
-164 -364 0
-165 -365 0
-166 -366 0
-167 -367 0
-168 -368 0
-169 -369 0
-170 -370 0
-171 -371 0
-172 -372 0
-173 -373 0
-174 -374 0
-175 -375 0
-176 -376 0
-177 -377 0
-178 -378 0
-179 -379 0
-180 -380 0
-181 -381 0
-182 -382 0
-183 -383 0
-184 -384 0
-185 -385 0
-186 -386 0
-187 -387 0
-188 -388 0
-189 -389 0
-190 -390 0
-191 -391 0
-192 -392 0
-193 -393 0
-194 -394 0
-195 -395 0
-196 -396 0
-197 -397 0
-198 -398 0
-199 -399 0
-200 -400 0
-4 0
-204 0
75 0
-275 0
-85 0
285 0
1 201 39 239 0
-1 201 -39 239 0
1 -201 39 -239 0
1 201 74 274 0
-1 201 -74 274 0
1 -201 74 -274 0
1 201 59 259 0
-1 201 -59 259 0
1 -201 59 -259 0
1 201 173 373 0
-1 201 -173 373 0
1 -201 173 -373 0
1 201 200 400 0
-1 201 -200 400 0
1 -201 200 -400 0
2 202 144 344 0
-2 202 -144 344 0
2 -202 144 -344 0
2 202 149 349 0
-2 202 -149 349 0
2 -202 149 -349 0
2 202 136 336 0
-2 202 -136 336 0
2 -202 136 -336 0
2 202 26 226 0
-2 202 -26 226 0
2 -202 26 -226 0
2 202 63 263 0
-2 202 -63 263 0
2 -202 63 -263 0
3 203 38 238 0
-3 203 -38 238 0
3 -203 38 -238 0
3 203 94 294 0
-3 203 -94 294 0
3 -203 94 -294 0
3 203 194 394 0
-3 203 -194 394 0
3 -203 194 -394 0
3 203 127 327 0
-3 203 -127 327 0
3 -203 127 -327 0
3 203 163 363 0
-3 203 -163 363 0
3 -203 163 -363 0
4 204 140 340 0
-4 204 -140 340 0
4 -204 140 -340 0
4 204 75 275 0
-4 204 -75 275 0
4 -204 75 -275 0
4 204 85 285 0
-4 204 -85 285 0
4 -204 85 -285 0
4 204 137 337 0
-4 204 -137 337 0
4 -204 137 -337 0
4 204 150 350 0
-4 204 -150 350 0
4 -204 150 -350 0
5 205 86 286 0
-5 205 -86 286 0
5 -205 86 -286 0
5 205 118 318 0
-5 205 -118 318 0
5 -205 118 -318 0
5 205 11 211 0
-5 205 -11 211 0
5 -205 11 -211 0
5 205 18 218 0
-5 205 -18 218 0
5 -205 18 -218 0
5 205 42 242 0
-5 205 -42 242 0
5 -205 42 -242 0
6 206 22 222 0
-6 206 -22 222 0
6 -206 22 -222 0
6 206 45 245 0
-6 206 -45 245 0
6 -206 45 -245 0
6 206 165 365 0
-6 206 -165 365 0
6 -206 165 -365 0
6 206 44 244 0
-6 206 -44 244 0
6 -206 44 -244 0
6 206 157 357 0
-6 206 -157 357 0
6 -206 157 -357 0
7 207 178 378 0
-7 207 -178 378 0
7 -207 178 -378 0
7 207 46 246 0
-7 207 -46 246 0
7 -207 46 -246 0
7 207 93 293 0
-7 207 -93 293 0
7 -207 93 -293 0
7 207 57 257 0
-7 207 -57 257 0
7 -207 57 -257 0
7 207 55 255 0
-7 207 -55 255 0
7 -207 55 -255 0
8 208 102 302 0
-8 208 -102 302 0
8 -208 102 -302 0
8 208 16 216 0
-8 208 -16 216 0
8 -208 16 -216 0
8 208 49 249 0
-8 208 -49 249 0
8 -208 49 -249 0
8 208 105 305 0
-8 208 -105 305 0
8 -208 105 -305 0
8 208 164 364 0
-8 208 -164 364 0
8 -208 164 -364 0
9 209 32 232 0
-9 209 -32 232 0
9 -209 32 -232 0
9 209 10 210 0
-9 209 -10 210 0
9 -209 10 -210 0
9 209 47 247 0
-9 209 -47 247 0
9 -209 47 -247 0
9 209 121 321 0
-9 209 -121 321 0
9 -209 121 -321 0
9 209 79 279 0
-9 209 -79 279 0
9 -209 79 -279 0
10 210 140 340 0
-10 210 -140 340 0
10 -210 140 -340 0
10 210 47 247 0
-10 210 -47 247 0
10 -210 47 -247 0
10 210 173 373 0
-10 210 -173 373 0
10 -210 173 -373 0
10 210 62 262 0
-10 210 -62 262 0
10 -210 62 -262 0
11 211 184 384 0
-11 211 -184 384 0
11 -211 184 -384 0
11 211 45 245 0
-11 211 -45 245 0
11 -211 45 -245 0
11 211 104 304 0
-11 211 -104 304 0
11 -211 104 -304 0
11 211 122 322 0
-11 211 -122 322 0
11 -211 122 -322 0
12 212 13 213 0
-12 212 -13 213 0
12 -212 13 -213 0
12 212 47 247 0
-12 212 -47 247 0
12 -212 47 -247 0
12 212 121 321 0
-12 212 -121 321 0
12 -212 121 -321 0
12 212 51 251 0
-12 212 -51 251 0
12 -212 51 -251 0
12 212 172 372 0
-12 212 -172 372 0
12 -212 172 -372 0
13 213 115 315 0
-13 213 -115 315 0
13 -213 115 -315 0
13 213 54 254 0
-13 213 -54 254 0
13 -213 54 -254 0
13 213 105 305 0
-13 213 -105 305 0
13 -213 105 -305 0
13 213 83 283 0
-13 213 -83 283 0
13 -213 83 -283 0
14 214 37 237 0
-14 214 -37 237 0
14 -214 37 -237 0
14 214 16 216 0
-14 214 -16 216 0
14 -214 16 -216 0
14 214 21 221 0
-14 214 -21 221 0
14 -214 21 -221 0
14 214 130 330 0
-14 214 -130 330 0
14 -214 130 -330 0
14 214 172 372 0
-14 214 -172 372 0
14 -214 172 -372 0
15 215 54 254 0
-15 215 -54 254 0
15 -215 54 -254 0
15 215 145 345 0
-15 215 -145 345 0
15 -215 145 -345 0
15 215 163 363 0
-15 215 -163 363 0
15 -215 163 -363 0
15 215 195 395 0
-15 215 -195 395 0
15 -215 195 -395 0
15 215 93 293 0
-15 215 -93 293 0
15 -215 93 -293 0
16 216 23 223 0
-16 216 -23 223 0
16 -216 23 -223 0
16 216 94 294 0
-16 216 -94 294 0
16 -216 94 -294 0
16 216 135 335 0
-16 216 -135 335 0
16 -216 135 -335 0
17 217 40 240 0
-17 217 -40 240 0
17 -217 40 -240 0
17 217 147 347 0
-17 217 -147 347 0
17 -217 147 -347 0
17 217 84 284 0
-17 217 -84 284 0
17 -217 84 -284 0
17 217 76 276 0
-17 217 -76 276 0
17 -217 76 -276 0
17 217 145 345 0
-17 217 -145 345 0
17 -217 145 -345 0
18 218 70 270 0
-18 218 -70 270 0
18 -218 70 -270 0
18 218 196 396 0
-18 218 -196 396 0
18 -218 196 -396 0
18 218 155 355 0
-18 218 -155 355 0
18 -218 155 -355 0
18 218 22 222 0
-18 218 -22 222 0
18 -218 22 -222 0
19 219 111 311 0
-19 219 -111 311 0
19 -219 111 -311 0
19 219 125 325 0
-19 219 -125 325 0
19 -219 125 -325 0
19 219 39 239 0
-19 219 -39 239 0
19 -219 39 -239 0
19 219 117 317 0
-19 219 -117 317 0
19 -219 117 -317 0
19 219 67 267 0
-19 219 -67 267 0
19 -219 67 -267 0
20 220 136 336 0
-20 220 -136 336 0
20 -220 136 -336 0
20 220 107 307 0
-20 220 -107 307 0
20 -220 107 -307 0
20 220 127 327 0
-20 220 -127 327 0
20 -220 127 -327 0
20 220 71 271 0
-20 220 -71 271 0
20 -220 71 -271 0
20 220 158 358 0
-20 220 -158 358 0
20 -220 158 -358 0
21 221 55 255 0
-21 221 -55 255 0
21 -221 55 -255 0
21 221 35 235 0
-21 221 -35 235 0
21 -221 35 -235 0
21 221 89 289 0
-21 221 -89 289 0
21 -221 89 -289 0
21 221 110 310 0
-21 221 -110 310 0
21 -221 110 -310 0
22 222 130 330 0
-22 222 -130 330 0
22 -222 130 -330 0
22 222 198 398 0
-22 222 -198 398 0
22 -222 198 -398 0
22 222 189 389 0
-22 222 -189 389 0
22 -222 189 -389 0
23 223 43 243 0
-23 223 -43 243 0
23 -223 43 -243 0
23 223 129 329 0
-23 223 -129 329 0
23 -223 129 -329 0
23 223 31 231 0
-23 223 -31 231 0
23 -223 31 -231 0
23 223 131 331 0
-23 223 -131 331 0
23 -223 131 -331 0
24 224 71 271 0
-24 224 -71 271 0
24 -224 71 -271 0
24 224 180 380 0
-24 224 -180 380 0
24 -224 180 -380 0
24 224 70 270 0
-24 224 -70 270 0
24 -224 70 -270 0
24 224 150 350 0
-24 224 -150 350 0
24 -224 150 -350 0
24 224 132 332 0
-24 224 -132 332 0
24 -224 132 -332 0
25 225 48 248 0
-25 225 -48 248 0
25 -225 48 -248 0
25 225 161 361 0
-25 225 -161 361 0
25 -225 161 -361 0
25 225 134 334 0
-25 225 -134 334 0
25 -225 134 -334 0
25 225 123 323 0
-25 225 -123 323 0
25 -225 123 -323 0
25 225 192 392 0
-25 225 -192 392 0
25 -225 192 -392 0
26 226 196 396 0
-26 226 -196 396 0
26 -226 196 -396 0
26 226 61 261 0
-26 226 -61 261 0
26 -226 61 -261 0
26 226 48 248 0
-26 226 -48 248 0
26 -226 48 -248 0
26 226 179 379 0
-26 226 -179 379 0
26 -226 179 -379 0
27 227 190 390 0
-27 227 -190 390 0
27 -227 190 -390 0
27 227 133 333 0
-27 227 -133 333 0
27 -227 133 -333 0
27 227 40 240 0
-27 227 -40 240 0
27 -227 40 -240 0
27 227 123 323 0
-27 227 -123 323 0
27 -227 123 -323 0
27 227 143 343 0
-27 227 -143 343 0
27 -227 143 -343 0
28 228 90 290 0
-28 228 -90 290 0
28 -228 90 -290 0
28 228 48 248 0
-28 228 -48 248 0
28 -228 48 -248 0
28 228 160 360 0
-28 228 -160 360 0
28 -228 160 -360 0
28 228 136 336 0
-28 228 -136 336 0
28 -228 136 -336 0
28 228 181 381 0
-28 228 -181 381 0
28 -228 181 -381 0
29 229 129 329 0
-29 229 -129 329 0
29 -229 129 -329 0
29 229 180 380 0
-29 229 -180 380 0
29 -229 180 -380 0
29 229 144 344 0
-29 229 -144 344 0
29 -229 144 -344 0
29 229 166 366 0
-29 229 -166 366 0
29 -229 166 -366 0
29 229 34 234 0
-29 229 -34 234 0
29 -229 34 -234 0
30 230 174 374 0
-30 230 -174 374 0
30 -230 174 -374 0
30 230 51 251 0
-30 230 -51 251 0
30 -230 51 -251 0
30 230 66 266 0
-30 230 -66 266 0
30 -230 66 -266 0
30 230 192 392 0
-30 230 -192 392 0
30 -230 192 -392 0
30 230 184 384 0
-30 230 -184 384 0
30 -230 184 -384 0
31 231 194 394 0
-31 231 -194 394 0
31 -231 194 -394 0
31 231 139 339 0
-31 231 -139 339 0
31 -231 139 -339 0
31 231 150 350 0
-31 231 -150 350 0
31 -231 150 -350 0
31 231 128 328 0
-31 231 -128 328 0
31 -231 128 -328 0
32 232 33 233 0
-32 232 -33 233 0
32 -232 33 -233 0
32 232 197 397 0
-32 232 -197 397 0
32 -232 197 -397 0
32 232 33 233 0
-32 232 -33 233 0
32 -232 33 -233 0
32 232 169 369 0
-32 232 -169 369 0
32 -232 169 -369 0
33 233 186 386 0
-33 233 -186 386 0
33 -233 186 -386 0
33 233 161 361 0
-33 233 -161 361 0
33 -233 161 -361 0
33 233 111 311 0
-33 233 -111 311 0
33 -233 111 -311 0
34 234 125 325 0
-34 234 -125 325 0
34 -234 125 -325 0
34 234 152 352 0
-34 234 -152 352 0
34 -234 152 -352 0
34 234 167 367 0
-34 234 -167 367 0
34 -234 167 -367 0
34 234 56 256 0
-34 234 -56 256 0
34 -234 56 -256 0
35 235 43 243 0
-35 235 -43 243 0
35 -235 43 -243 0
35 235 188 388 0
-35 235 -188 388 0
35 -235 188 -388 0
35 235 44 244 0
-35 235 -44 244 0
35 -235 44 -244 0
35 235 132 332 0
-35 235 -132 332 0
35 -235 132 -332 0
36 236 114 314 0
-36 236 -114 314 0
36 -236 114 -314 0
36 236 100 300 0
-36 236 -100 300 0
36 -236 100 -300 0
36 236 88 288 0
-36 236 -88 288 0
36 -236 88 -288 0
36 236 79 279 0
-36 236 -79 279 0
36 -236 79 -279 0
36 236 153 353 0
-36 236 -153 353 0
36 -236 153 -353 0
37 237 168 368 0
-37 237 -168 368 0
37 -237 168 -368 0
37 237 155 355 0
-37 237 -155 355 0
37 -237 155 -355 0
37 237 134 334 0
-37 237 -134 334 0
37 -237 134 -334 0
37 237 178 378 0
-37 237 -178 378 0
37 -237 178 -378 0
38 238 81 281 0
-38 238 -81 281 0
38 -238 81 -281 0
38 238 86 286 0
-38 238 -86 286 0
38 -238 86 -286 0
38 238 88 288 0
-38 238 -88 288 0
38 -238 88 -288 0
38 238 188 388 0
-38 238 -188 388 0
38 -238 188 -388 0
39 239 56 256 0
-39 239 -56 256 0
39 -239 56 -256 0
39 239 60 260 0
-39 239 -60 260 0
39 -239 60 -260 0
39 239 50 250 0
-39 239 -50 250 0
39 -239 50 -250 0
40 240 181 381 0
-40 240 -181 381 0
40 -240 181 -381 0
40 240 166 366 0
-40 240 -166 366 0
40 -240 166 -366 0
40 240 142 342 0
-40 240 -142 342 0
40 -240 142 -342 0
41 241 146 346 0
-41 241 -146 346 0
41 -241 146 -346 0
41 241 119 319 0
-41 241 -119 319 0
41 -241 119 -319 0
41 241 54 254 0
-41 241 -54 254 0
41 -241 54 -254 0
41 241 199 399 0
-41 241 -199 399 0
41 -241 199 -399 0
41 241 141 341 0
-41 241 -141 341 0
41 -241 141 -341 0
42 242 108 308 0
-42 242 -108 308 0
42 -242 108 -308 0
42 242 95 295 0
-42 242 -95 295 0
42 -242 95 -295 0
42 242 187 387 0
-42 242 -187 387 0
42 -242 187 -387 0
42 242 69 269 0
-42 242 -69 269 0
42 -242 69 -269 0
43 243 165 365 0
-43 243 -165 365 0
43 -243 165 -365 0
43 243 120 320 0
-43 243 -120 320 0
43 -243 120 -320 0
43 243 197 397 0
-43 243 -197 397 0
43 -243 197 -397 0
44 244 53 253 0
-44 244 -53 253 0
44 -244 53 -253 0
44 244 124 324 0
-44 244 -124 324 0
44 -244 124 -324 0
44 244 173 373 0
-44 244 -173 373 0
44 -244 173 -373 0
45 245 126 326 0
-45 245 -126 326 0
45 -245 126 -326 0
45 245 107 307 0
-45 245 -107 307 0
45 -245 107 -307 0
45 245 106 306 0
-45 245 -106 306 0
45 -245 106 -306 0
46 246 52 252 0
-46 246 -52 252 0
46 -246 52 -252 0
46 246 165 365 0
-46 246 -165 365 0
46 -246 165 -365 0
46 246 108 308 0
-46 246 -108 308 0
46 -246 108 -308 0
46 246 92 292 0
-46 246 -92 292 0
46 -246 92 -292 0
47 247 78 278 0
-47 247 -78 278 0
47 -247 78 -278 0
47 247 200 400 0
-47 247 -200 400 0
47 -247 200 -400 0
48 248 82 282 0
-48 248 -82 282 0
48 -248 82 -282 0
48 248 86 286 0
-48 248 -86 286 0
48 -248 86 -286 0
49 249 68 268 0
-49 249 -68 268 0
49 -249 68 -268 0
49 249 52 252 0
-49 249 -52 252 0
49 -249 52 -252 0
49 249 67 267 0
-49 249 -67 267 0
49 -249 67 -267 0
49 249 54 254 0
-49 249 -54 254 0
49 -249 54 -254 0
50 250 200 400 0
-50 250 -200 400 0
50 -250 200 -400 0
50 250 52 252 0
-50 250 -52 252 0
50 -250 52 -252 0
50 250 185 385 0
-50 250 -185 385 0
50 -250 185 -385 0
50 250 117 317 0
-50 250 -117 317 0
50 -250 117 -317 0
51 251 167 367 0
-51 251 -167 367 0
51 -251 167 -367 0
51 251 185 385 0
-51 251 -185 385 0
51 -251 185 -385 0
51 251 102 302 0
-51 251 -102 302 0
51 -251 102 -302 0
52 252 173 373 0
-52 252 -173 373 0
52 -252 173 -373 0
52 252 60 260 0
-52 252 -60 260 0
52 -252 60 -260 0
53 253 96 296 0
-53 253 -96 296 0
53 -253 96 -296 0
53 253 193 393 0
-53 253 -193 393 0
53 -253 193 -393 0
53 253 97 297 0
-53 253 -97 297 0
53 -253 97 -297 0
53 253 187 387 0
-53 253 -187 387 0
53 -253 187 -387 0
54 254 63 263 0
-54 254 -63 263 0
54 -254 63 -263 0
55 255 158 358 0
-55 255 -158 358 0
55 -255 158 -358 0
55 255 97 297 0
-55 255 -97 297 0
55 -255 97 -297 0
55 255 88 288 0
-55 255 -88 288 0
55 -255 88 -288 0
56 256 99 299 0
-56 256 -99 299 0
56 -256 99 -299 0
56 256 166 366 0
-56 256 -166 366 0
56 -256 166 -366 0
56 256 97 297 0
-56 256 -97 297 0
56 -256 97 -297 0
57 257 198 398 0
-57 257 -198 398 0
57 -257 198 -398 0
57 257 61 261 0
-57 257 -61 261 0
57 -257 61 -261 0
57 257 107 307 0
-57 257 -107 307 0
57 -257 107 -307 0
57 257 114 314 0
-57 257 -114 314 0
57 -257 114 -314 0
58 258 146 346 0
-58 258 -146 346 0
58 -258 146 -346 0
58 258 151 351 0
-58 258 -151 351 0
58 -258 151 -351 0
58 258 182 382 0
-58 258 -182 382 0
58 -258 182 -382 0
58 258 74 274 0
-58 258 -74 274 0
58 -258 74 -274 0
58 258 162 362 0
-58 258 -162 362 0
58 -258 162 -362 0
59 259 64 264 0
-59 259 -64 264 0
59 -259 64 -264 0
59 259 193 393 0
-59 259 -193 393 0
59 -259 193 -393 0
59 259 176 376 0
-59 259 -176 376 0
59 -259 176 -376 0
59 259 198 398 0
-59 259 -198 398 0
59 -259 198 -398 0
60 260 156 356 0
-60 260 -156 356 0
60 -260 156 -356 0
60 260 85 285 0
-60 260 -85 285 0
60 -260 85 -285 0
60 260 193 393 0
-60 260 -193 393 0
60 -260 193 -393 0
61 261 79 279 0
-61 261 -79 279 0
61 -261 79 -279 0
61 261 84 284 0
-61 261 -84 284 0
61 -261 84 -284 0
61 261 117 317 0
-61 261 -117 317 0
61 -261 117 -317 0
62 262 100 300 0
-62 262 -100 300 0
62 -262 100 -300 0
62 262 87 287 0
-62 262 -87 287 0
62 -262 87 -287 0
62 262 73 273 0
-62 262 -73 273 0
62 -262 73 -273 0
62 262 113 313 0
-62 262 -113 313 0
62 -262 113 -313 0
63 263 137 337 0
-63 263 -137 337 0
63 -263 137 -337 0
63 263 101 301 0
-63 263 -101 301 0
63 -263 101 -301 0
63 263 69 269 0
-63 263 -69 269 0
63 -263 69 -269 0
64 264 83 283 0
-64 264 -83 283 0
64 -264 83 -283 0
64 264 120 320 0
-64 264 -120 320 0
64 -264 120 -320 0
64 264 192 392 0
-64 264 -192 392 0
64 -264 192 -392 0
64 264 70 270 0
-64 264 -70 270 0
64 -264 70 -270 0
65 265 95 295 0
-65 265 -95 295 0
65 -265 95 -295 0
65 265 123 323 0
-65 265 -123 323 0
65 -265 123 -323 0
65 265 183 383 0
-65 265 -183 383 0
65 -265 183 -383 0
65 265 141 341 0
-65 265 -141 341 0
65 -265 141 -341 0
65 265 87 287 0
-65 265 -87 287 0
65 -265 87 -287 0
66 266 105 305 0
-66 266 -105 305 0
66 -266 105 -305 0
66 266 194 394 0
-66 266 -194 394 0
66 -266 194 -394 0
66 266 91 291 0
-66 266 -91 291 0
66 -266 91 -291 0
66 266 191 391 0
-66 266 -191 391 0
66 -266 191 -391 0
67 267 124 324 0
-67 267 -124 324 0
67 -267 124 -324 0
67 267 96 296 0
-67 267 -96 296 0
67 -267 96 -296 0
67 267 110 310 0
-67 267 -110 310 0
67 -267 110 -310 0
68 268 75 275 0
-68 268 -75 275 0
68 -268 75 -275 0
68 268 130 330 0
-68 268 -130 330 0
68 -268 130 -330 0
68 268 177 377 0
-68 268 -177 377 0
68 -268 177 -377 0
68 268 191 391 0
-68 268 -191 391 0
68 -268 191 -391 0
69 269 81 281 0
-69 269 -81 281 0
69 -269 81 -281 0
69 269 149 349 0
-69 269 -149 349 0
69 -269 149 -349 0
69 269 148 348 0
-69 269 -148 348 0
69 -269 148 -348 0
70 270 165 365 0
-70 270 -165 365 0
70 -270 165 -365 0
70 270 138 338 0
-70 270 -138 338 0
70 -270 138 -338 0
71 271 197 397 0
-71 271 -197 397 0
71 -271 197 -397 0
71 271 131 331 0
-71 271 -131 331 0
71 -271 131 -331 0
71 271 158 358 0
-71 271 -158 358 0
71 -271 158 -358 0
72 272 167 367 0
-72 272 -167 367 0
72 -272 167 -367 0
72 272 170 370 0
-72 272 -170 370 0
72 -272 170 -370 0
72 272 119 319 0
-72 272 -119 319 0
72 -272 119 -319 0
72 272 116 316 0
-72 272 -116 316 0
72 -272 116 -316 0
72 272 194 394 0
-72 272 -194 394 0
72 -272 194 -394 0
73 273 127 327 0
-73 273 -127 327 0
73 -273 127 -327 0
73 273 155 355 0
-73 273 -155 355 0
73 -273 155 -355 0
73 273 191 391 0
-73 273 -191 391 0
73 -273 191 -391 0
73 273 96 296 0
-73 273 -96 296 0
73 -273 96 -296 0
74 274 120 320 0
-74 274 -120 320 0
74 -274 120 -320 0
74 274 195 395 0
-74 274 -195 395 0
74 -274 195 -395 0
74 274 171 371 0
-74 274 -171 371 0
74 -274 171 -371 0
75 275 85 285 0
-75 275 -85 285 0
75 -275 85 -285 0
75 275 187 387 0
-75 275 -187 387 0
75 -275 187 -387 0
75 275 106 306 0
-75 275 -106 306 0
75 -275 106 -306 0
76 276 160 360 0
-76 276 -160 360 0
76 -276 160 -360 0
76 276 79 279 0
-76 276 -79 279 0
76 -276 79 -279 0
76 276 93 293 0
-76 276 -93 293 0
76 -276 93 -293 0
76 276 119 319 0
-76 276 -119 319 0
76 -276 119 -319 0
77 277 168 368 0
-77 277 -168 368 0
77 -277 168 -368 0
77 277 172 372 0
-77 277 -172 372 0
77 -277 172 -372 0
77 277 128 328 0
-77 277 -128 328 0
77 -277 128 -328 0
77 277 114 314 0
-77 277 -114 314 0
77 -277 114 -314 0
77 277 104 304 0
-77 277 -104 304 0
77 -277 104 -304 0
78 278 182 382 0
-78 278 -182 382 0
78 -278 182 -382 0
78 278 121 321 0
-78 278 -121 321 0
78 -278 121 -321 0
78 278 116 316 0
-78 278 -116 316 0
78 -278 116 -316 0
78 278 177 377 0
-78 278 -177 377 0
78 -278 177 -377 0
79 279 129 329 0
-79 279 -129 329 0
79 -279 129 -329 0
80 280 109 309 0
-80 280 -109 309 0
80 -280 109 -309 0
80 280 99 299 0
-80 280 -99 299 0
80 -280 99 -299 0
80 280 176 376 0
-80 280 -176 376 0
80 -280 176 -376 0
80 280 151 351 0
-80 280 -151 351 0
80 -280 151 -351 0
80 280 143 343 0
-80 280 -143 343 0
80 -280 143 -343 0
81 281 174 374 0
-81 281 -174 374 0
81 -281 174 -374 0
81 281 98 298 0
-81 281 -98 298 0
81 -281 98 -298 0
81 281 162 362 0
-81 281 -162 362 0
81 -281 162 -362 0
82 282 95 295 0
-82 282 -95 295 0
82 -282 95 -295 0
82 282 177 377 0
-82 282 -177 377 0
82 -282 177 -377 0
82 282 105 305 0
-82 282 -105 305 0
82 -282 105 -305 0
82 282 143 343 0
-82 282 -143 343 0
82 -282 143 -343 0
83 283 153 353 0
-83 283 -153 353 0
83 -283 153 -353 0
83 283 175 375 0
-83 283 -175 375 0
83 -283 175 -375 0
83 283 189 389 0
-83 283 -189 389 0
83 -283 189 -389 0
84 284 138 338 0
-84 284 -138 338 0
84 -284 138 -338 0
84 284 118 318 0
-84 284 -118 318 0
84 -284 118 -318 0
84 284 116 316 0
-84 284 -116 316 0
84 -284 116 -316 0
85 285 109 309 0
-85 285 -109 309 0
85 -285 109 -309 0
85 285 172 372 0
-85 285 -172 372 0
85 -285 172 -372 0
86 286 127 327 0
-86 286 -127 327 0
86 -286 127 -327 0
86 286 90 290 0
-86 286 -90 290 0
86 -286 90 -290 0
87 287 161 361 0
-87 287 -161 361 0
87 -287 161 -361 0
87 287 129 329 0
-87 287 -129 329 0
87 -287 129 -329 0
87 287 156 356 0
-87 287 -156 356 0
87 -287 156 -356 0
88 288 198 398 0
-88 288 -198 398 0
88 -288 198 -398 0
88 288 118 318 0
-88 288 -118 318 0
88 -288 118 -318 0
89 289 126 326 0
-89 289 -126 326 0
89 -289 126 -326 0
89 289 105 305 0
-89 289 -105 305 0
89 -289 105 -305 0
89 289 153 353 0
-89 289 -153 353 0
89 -289 153 -353 0
89 289 152 352 0
-89 289 -152 352 0
89 -289 152 -352 0
90 290 178 378 0
-90 290 -178 378 0
90 -290 178 -378 0
90 290 187 387 0
-90 290 -187 387 0
90 -290 187 -387 0
90 290 196 396 0
-90 290 -196 396 0
90 -290 196 -396 0
91 291 138 338 0
-91 291 -138 338 0
91 -291 138 -338 0
91 291 142 342 0
-91 291 -142 342 0
91 -291 142 -342 0
91 291 147 347 0
-91 291 -147 347 0
91 -291 147 -347 0
91 291 174 374 0
-91 291 -174 374 0
91 -291 174 -374 0
92 292 136 336 0
-92 292 -136 336 0
92 -292 136 -336 0
92 292 148 348 0
-92 292 -148 348 0
92 -292 148 -348 0
92 292 188 388 0
-92 292 -188 388 0
92 -292 188 -388 0
92 292 139 339 0
-92 292 -139 339 0
92 -292 139 -339 0
93 293 125 325 0
-93 293 -125 325 0
93 -293 125 -325 0
93 293 97 297 0
-93 293 -97 297 0
93 -293 97 -297 0
94 294 128 328 0
-94 294 -128 328 0
94 -294 128 -328 0
94 294 101 301 0
-94 294 -101 301 0
94 -294 101 -301 0
94 294 196 396 0
-94 294 -196 396 0
94 -294 196 -396 0
95 295 168 368 0
-95 295 -168 368 0
95 -295 168 -368 0
95 295 160 360 0
-95 295 -160 360 0
95 -295 160 -360 0
96 296 191 391 0
-96 296 -191 391 0
96 -296 191 -391 0
96 296 150 350 0
-96 296 -150 350 0
96 -296 150 -350 0
97 297 147 347 0
-97 297 -147 347 0
97 -297 147 -347 0
98 298 161 361 0
-98 298 -161 361 0
98 -298 161 -361 0
98 298 166 366 0
-98 298 -166 366 0
98 -298 166 -366 0
98 298 164 364 0
-98 298 -164 364 0
98 -298 164 -364 0
98 298 113 313 0
-98 298 -113 313 0
98 -298 113 -313 0
99 299 156 356 0
-99 299 -156 356 0
99 -299 156 -356 0
99 299 151 351 0
-99 299 -151 351 0
99 -299 151 -351 0
99 299 114 314 0
-99 299 -114 314 0
99 -299 114 -314 0
100 300 152 352 0
-100 300 -152 352 0
100 -300 152 -352 0
100 300 106 306 0
-100 300 -106 306 0
100 -300 106 -306 0
100 300 162 362 0
-100 300 -162 362 0
100 -300 162 -362 0
101 301 200 400 0
-101 301 -200 400 0
101 -301 200 -400 0
101 301 116 316 0
-101 301 -116 316 0
101 -301 116 -316 0
101 301 121 321 0
-101 301 -121 321 0
101 -301 121 -321 0
102 302 117 317 0
-102 302 -117 317 0
102 -302 117 -317 0
102 302 157 357 0
-102 302 -157 357 0
102 -302 157 -357 0
102 302 189 389 0
-102 302 -189 389 0
102 -302 189 -389 0
103 303 165 365 0
-103 303 -165 365 0
103 -303 165 -365 0
103 303 159 359 0
-103 303 -159 359 0
103 -303 159 -359 0
103 303 169 369 0
-103 303 -169 369 0
103 -303 169 -369 0
103 303 175 375 0
-103 303 -175 375 0
103 -303 175 -375 0
103 303 167 367 0
-103 303 -167 367 0
103 -303 167 -367 0
104 304 109 309 0
-104 304 -109 309 0
104 -304 109 -309 0
104 304 145 345 0
-104 304 -145 345 0
104 -304 145 -345 0
104 304 155 355 0
-104 304 -155 355 0
104 -304 155 -355 0
106 306 177 377 0
-106 306 -177 377 0
106 -306 177 -377 0
106 306 116 316 0
-106 306 -116 316 0
106 -306 116 -316 0
107 307 152 352 0
-107 307 -152 352 0
107 -307 152 -352 0
107 307 138 338 0
-107 307 -138 338 0
107 -307 138 -338 0
108 308 158 358 0
-108 308 -158 358 0
108 -308 158 -358 0
108 308 159 359 0
-108 308 -159 359 0
108 -308 159 -359 0
108 308 188 388 0
-108 308 -188 388 0
108 -308 188 -388 0
109 309 199 399 0
-109 309 -199 399 0
109 -309 199 -399 0
109 309 144 344 0
-109 309 -144 344 0
109 -309 144 -344 0
110 310 115 315 0
-110 310 -115 315 0
110 -310 115 -315 0
110 310 130 330 0
-110 310 -130 330 0
110 -310 130 -330 0
110 310 150 350 0
-110 310 -150 350 0
110 -310 150 -350 0
111 311 137 337 0
-111 311 -137 337 0
111 -311 137 -337 0
111 311 168 368 0
-111 311 -168 368 0
111 -311 168 -368 0
111 311 198 398 0
-111 311 -198 398 0
111 -311 198 -398 0
112 312 199 399 0
-112 312 -199 399 0
112 -312 199 -399 0
112 312 190 390 0
-112 312 -190 390 0
112 -312 190 -390 0
112 312 140 340 0
-112 312 -140 340 0
112 -312 140 -340 0
112 312 122 322 0
-112 312 -122 322 0
112 -312 122 -322 0
112 312 141 341 0
-112 312 -141 341 0
112 -312 141 -341 0
113 313 183 383 0
-113 313 -183 383 0
113 -313 183 -383 0
113 313 200 400 0
-113 313 -200 400 0
113 -313 200 -400 0
113 313 118 318 0
-113 313 -118 318 0
113 -313 118 -318 0
114 314 185 385 0
-114 314 -185 385 0
114 -314 185 -385 0
115 315 135 335 0
-115 315 -135 335 0
115 -315 135 -335 0
115 315 180 380 0
-115 315 -180 380 0
115 -315 180 -380 0
115 315 162 362 0
-115 315 -162 362 0
115 -315 162 -362 0
117 317 173 373 0
-117 317 -173 373 0
117 -317 173 -373 0
118 318 147 347 0
-118 318 -147 347 0
118 -318 147 -347 0
119 319 159 359 0
-119 319 -159 359 0
119 -319 159 -359 0
119 319 186 386 0
-119 319 -186 386 0
119 -319 186 -386 0
120 320 190 390 0
-120 320 -190 390 0
120 -320 190 -390 0
120 320 126 326 0
-120 320 -126 326 0
120 -320 126 -326 0
121 321 168 368 0
-121 321 -168 368 0
121 -321 168 -368 0
122 322 153 353 0
-122 322 -153 353 0
122 -322 153 -353 0
122 322 176 376 0
-122 322 -176 376 0
122 -322 176 -376 0
122 322 133 333 0
-122 322 -133 333 0
122 -322 133 -333 0
123 323 149 349 0
-123 323 -149 349 0
123 -323 149 -349 0
123 323 143 343 0
-123 323 -143 343 0
123 -323 143 -343 0
124 324 139 339 0
-124 324 -139 339 0
124 -324 139 -339 0
124 324 184 384 0
-124 324 -184 384 0
124 -324 184 -384 0
124 324 193 393 0
-124 324 -193 393 0
124 -324 193 -393 0
125 325 175 375 0
-125 325 -175 375 0
125 -325 175 -375 0
125 325 194 394 0
-125 325 -194 394 0
125 -325 194 -394 0
126 326 134 334 0
-126 326 -134 334 0
126 -326 134 -334 0
126 326 154 354 0
-126 326 -154 354 0
126 -326 154 -354 0
127 327 181 381 0
-127 327 -181 381 0
127 -327 181 -381 0
128 328 140 340 0
-128 328 -140 340 0
128 -328 140 -340 0
128 328 195 395 0
-128 328 -195 395 0
128 -328 195 -395 0
129 329 135 335 0
-129 329 -135 335 0
129 -329 135 -335 0
130 330 157 357 0
-130 330 -157 357 0
130 -330 157 -357 0
131 331 149 349 0
-131 331 -149 349 0
131 -331 149 -349 0
131 331 199 399 0
-131 331 -199 399 0
131 -331 199 -399 0
131 331 179 379 0
-131 331 -179 379 0
131 -331 179 -379 0
132 332 178 378 0
-132 332 -178 378 0
132 -332 178 -378 0
132 332 146 346 0
-132 332 -146 346 0
132 -332 146 -346 0
132 332 182 382 0
-132 332 -182 382 0
132 -332 182 -382 0
133 333 192 392 0
-133 333 -192 392 0
133 -333 192 -392 0
133 333 181 381 0
-133 333 -181 381 0
133 -333 181 -381 0
133 333 139 339 0
-133 333 -139 339 0
133 -333 139 -339 0
134 334 187 387 0
-134 334 -187 387 0
134 -334 187 -387 0
134 334 146 346 0
-134 334 -146 346 0
134 -334 146 -346 0
135 335 139 339 0
-135 335 -139 339 0
135 -335 139 -339 0
135 335 182 382 0
-135 335 -182 382 0
135 -335 182 -382 0
136 336 176 376 0
-136 336 -176 376 0
136 -336 176 -376 0
137 337 170 370 0
-137 337 -170 370 0
137 -337 170 -370 0
137 337 142 342 0
-137 337 -142 342 0
137 -337 142 -342 0
138 338 182 382 0
-138 338 -182 382 0
138 -338 182 -382 0
140 340 184 384 0
-140 340 -184 384 0
140 -340 184 -384 0
141 341 185 385 0
-141 341 -185 385 0
141 -341 185 -385 0
141 341 184 384 0
-141 341 -184 384 0
141 -341 184 -384 0
142 342 193 393 0
-142 342 -193 393 0
142 -342 193 -393 0
142 342 163 363 0
-142 342 -163 363 0
142 -342 163 -363 0
143 343 171 371 0
-143 343 -171 371 0
143 -343 171 -371 0
144 344 154 354 0
-144 344 -154 354 0
144 -344 154 -354 0
144 344 166 366 0
-144 344 -166 366 0
144 -344 166 -366 0
145 345 192 392 0
-145 345 -192 392 0
145 -345 192 -392 0
145 345 199 399 0
-145 345 -199 399 0
145 -345 199 -399 0
146 346 177 377 0
-146 346 -177 377 0
146 -346 177 -377 0
147 347 190 390 0
-147 347 -190 390 0
147 -347 190 -390 0
148 348 186 386 0
-148 348 -186 386 0
148 -348 186 -386 0
148 348 179 379 0
-148 348 -179 379 0
148 -348 179 -379 0
148 348 154 354 0
-148 348 -154 354 0
148 -348 154 -354 0
149 349 186 386 0
-149 349 -186 386 0
149 -349 186 -386 0
151 351 197 397 0
-151 351 -197 397 0
151 -351 197 -397 0
151 351 159 359 0
-151 351 -159 359 0
151 -351 159 -359 0
152 352 183 383 0
-152 352 -183 383 0
152 -352 183 -383 0
153 353 186 386 0
-153 353 -186 386 0
153 -353 186 -386 0
154 354 183 383 0
-154 354 -183 383 0
154 -354 183 -383 0
154 354 160 360 0
-154 354 -160 360 0
154 -354 160 -360 0
155 355 164 364 0
-155 355 -164 364 0
155 -355 164 -364 0
156 356 196 396 0
-156 356 -196 396 0
156 -356 196 -396 0
156 356 179 379 0
-156 356 -179 379 0
156 -356 179 -379 0
157 357 169 369 0
-157 357 -169 369 0
157 -357 169 -369 0
157 357 185 385 0
-157 357 -185 385 0
157 -357 185 -385 0
158 358 163 363 0
-158 358 -163 363 0
158 -358 163 -363 0
159 359 180 380 0
-159 359 -180 380 0
159 -359 180 -380 0
160 360 161 361 0
-160 360 -161 361 0
160 -360 161 -361 0
162 362 195 395 0
-162 362 -195 395 0
162 -362 195 -395 0
163 363 171 371 0
-163 363 -171 371 0
163 -363 171 -371 0
164 364 170 370 0
-164 364 -170 370 0
164 -364 170 -370 0
164 364 176 376 0
-164 364 -176 376 0
164 -364 176 -376 0
167 367 169 369 0
-167 367 -169 369 0
167 -367 169 -369 0
169 369 188 388 0
-169 369 -188 388 0
169 -369 188 -388 0
170 370 180 380 0
-170 370 -180 380 0
170 -370 180 -380 0
170 370 191 391 0
-170 370 -191 391 0
170 -370 191 -391 0
171 371 178 378 0
-171 371 -178 378 0
171 -371 178 -378 0
171 371 174 374 0
-171 371 -174 374 0
171 -371 174 -374 0
172 372 174 374 0
-172 372 -174 374 0
172 -372 174 -374 0
175 375 190 390 0
-175 375 -190 390 0
175 -375 190 -390 0
175 375 183 383 0
-175 375 -183 383 0
175 -375 183 -383 0
179 379 197 397 0
-179 379 -197 397 0
179 -379 197 -397 0
181 381 189 389 0
-181 381 -189 389 0
181 -381 189 -389 0
189 389 195 395 0
-189 389 -195 395 0
189 -389 195 -395 0
